!B3LYP 6-311G* VERYTIGHTOPT FREQ D3  tightscf

%maxcore 5000
%pal
nprocs 7
end

* xyz 0 1
C         -2.81840        1.32260       -0.08240
C         -3.51980       -0.00610       -0.28130
C         -2.76210       -1.13130        0.42160
C         -1.38800       -1.26450       -0.23790
C         -0.59640       -2.37710        0.45070
C          0.77430       -2.49710       -0.22160
C          1.48710       -1.17270       -0.12080
C          2.84750       -1.14460       -0.08390
C          3.54040        0.06030        0.01400
C          2.87160        1.24360        0.07810
C          1.46700        1.25140        0.04390
C          0.74600        2.45430        0.11710
C         -0.60870        2.42630        0.07540
C         -1.32080        1.22180       -0.04070
C         -0.64910        0.04300       -0.11080
C          0.75900        0.02820       -0.06440
H         -3.09920        1.98910       -0.89790
H         -3.16330        1.76060        0.85430
H         -4.52860        0.05630        0.12670
H         -3.57810       -0.22470       -1.34760
H         -2.64160       -0.89010        1.47770
H         -3.31240       -2.06650        0.31760
H         -1.51380       -1.50800       -1.29290
H         -0.46590       -2.13370        1.50520
H         -1.13380       -3.32050        0.35540
H          1.36090       -3.26630        0.28070
H          0.64400       -2.76240       -1.27070
H          3.39910       -2.07190       -0.13090
H          4.62010        0.05500        0.03970
H          3.41770        2.17220        0.15520
H          1.26750        3.39580        0.20630
H         -1.15530        3.35600        0.13300
*