!B3LYP 6-311+G**  D4

%maxcore 5000
%pal
nprocs 7
end

%TDDFT
  NROOTS 1000
  END

%scf
stabperform true
STABDTol 1e-5
STABRTol 1e-5
end
  
* XYZ 0 1
  C   -3.35033919707563      1.65437419580195     -0.01265869076846
  C   -4.26277663219403      0.60498341427227     -0.03856807631746
  C   -3.82154892042965     -0.71422867676207     -0.04592897308486
  C   -2.45251273772298     -1.01382756955033     -0.02758287068478
  C   -1.96186346635643     -2.36196427913232     -0.03282490824908
  C   -0.62995551325856     -2.62745733651453     -0.01258743184992
  C   0.34468311917300     -1.57464472931411      0.01456633867180
  C   1.72308656494427     -1.83612960453215      0.03732966264129
  C   2.62893101795652     -0.78556517728542      0.05200600913917
  C   2.19393537732878      0.54261886116513      0.04640969148882
  C   0.82884503806801      0.85427537913658      0.03811617158643
  C   0.33154790917972      2.20055277850404      0.04765771168255
  C   -1.00183797523034      2.46195180199058      0.03272801715106
  C   -1.97112722168548      1.40507705580027      0.00556319333003
  C   -1.50873821992223      0.05572109516752     -0.00215984579299
  C   -0.11167208659671     -0.22162455222333      0.01715108202537
  C   3.37439272276955      1.48738597984239      0.07417586369587
  C   4.56291979074032      0.57950853246148     -0.32324850677279
  C   4.13932596372885     -0.84640613635946      0.09928088606659
  H   -3.70195374548558      2.68171670430622     -0.00628663402081
  H   -5.32704948968248      0.81681563572882     -0.05272826982039
  H   -4.54013389486298     -1.52816066112217     -0.06563605253952
  H   -2.68309109438509     -3.17365908572634     -0.05260798256492
  H   -0.27629637056009     -3.65442906235706     -0.01602277543092
  H   2.06911594180364     -2.86624671973311      0.03751049792632
  H   1.04354054070200      3.01863443176854      0.07078891575090
  H   -1.35858189480242      3.48778282215375      0.04099701771447
  H   3.26072728697370      2.34168963833281     -0.59878061009192
  H   3.50995819100506      1.89802896018186      1.08371371102638
  H   4.69057613363393      0.61081246189124     -1.40937438593431
  H   5.50663453474056      0.89460248222845      0.12681077468491
  H   4.47393919343030     -1.06816809024595      1.12092327613828
  H   4.55851913407249     -1.62312054987555     -0.54603280679709
*