!b3lyp opt freq 6-311g** d4 tightscf

%maxcore 5000
%pal
nprocs 8
end


* xyz 0 1
  C   2.38287686984409     -2.80810216400636     -0.00001292027767
  C   1.32515814165386     -3.43685633500080     -0.00004015516854
  C   0.03640300363992     -2.92736206247354     -0.00011259064914
  C   -1.23960534735832     -3.46780127655544     -0.00015227692490
  C   -2.31328437462590     -2.86678951624169     -0.00021802420645
  C   -2.51649640442673     -1.49583419744674     -0.00026944944723
  C   -3.62254822688645     -0.66109342844381     -0.00034287483704
  C   -3.63832217901065      0.56927678747355     -0.00038084329694
  C   -2.55316048313384      1.43104407029057     -0.00035948983943
  C   -2.38259941916883      2.80623281727009     -0.00039549981067
  C   -1.32502946016791      3.43517836334060     -0.00036829059626
  C   -0.03618409568659      2.92536354271914     -0.00029730012302
  C   1.23967358614333      3.46618076572536     -0.00025756904031
  C   2.31307516456536      2.86470911195901     -0.00019352906051
  C   2.51650627675757      1.49397607794430     -0.00014208927693
  C   3.62221769041358      0.65884656990452     -0.00006869075199
  C   3.63902610074033     -0.57148447635663     -0.00002932241016
  C   2.55326920849781     -1.43289127207568     -0.00005001732554
  C   1.25913589626413     -0.70712820111946     -0.00012651935602
  C   1.24097369465134      0.73603392504048     -0.00017502366168
  C   -0.01794699433061      1.44209646098666     -0.00024790420612
  C   -1.25897437709857      0.70520413574252     -0.00028265600559
  C   -1.24092775114286     -0.73797631152203     -0.00023424428820
  C   0.01803151864973     -1.44397773797862     -0.00016048747522
*