!m062x def2-tzvp opt freq tightscf

%maxcore 5000
%pal
nprocs 8
end

%freq
Temp 298.15,10,20,50,100,6000,8000,10000
end

%base "eight_seven_eleven_twelven_three_four_two_ten_position"

* xyz 0 1
  C   2.50843642419213     -2.86068221519936     -0.00000105655209
  C   1.31470793174683     -3.49016086282622     -0.00003780009918
  C   0.07484643428983     -2.87553733997172     -0.00011328585679
  C   -1.22251675531768     -3.41377958864850     -0.00015570095963
  C   -2.28193183208725     -2.80929842032286     -0.00022480197965
  C   -2.49690098980913     -1.41877918439564     -0.00027720392745
  C   -3.71840843531934     -0.73020445018118     -0.00034964714554
  C   -3.73396132290873      0.63720518022058     -0.00038683582655
  C   -2.52866640066130      1.35403916545733     -0.00035256757556
  C   -2.34235156402205      2.74861524407207     -0.00038265822738
  C   -1.29335335307068      3.37108605947461     -0.00035693741920
  C   0.01936526259587      2.86474104226201     -0.00028961843742
  C   1.22531103061391      3.58008136741210     -0.00026189538116
  C   2.41810867483044      2.91249165395019     -0.00019223863311
  C   2.43810689604807      1.51054685335438     -0.00014700581607
  C   3.55237676893993      0.65367450300572     -0.00007125583569
  C   3.57689434074978     -0.56579699593045     -0.00002516739772
  C   2.48523401315947     -1.45123288062101     -0.00004715345911
  C   1.24949313417433     -0.71315722331657     -0.00012291430012
  C   1.22940507104591      0.73338420059951     -0.00017777887104
  C   -0.00994904241732      1.42883318162470     -0.00024904700469
  C   -1.25391980139938      0.69290158555765     -0.00027966297810
  C   -1.23804276160049     -0.72744798559025     -0.00023947335639
  C   0.02275793205632     -1.43331681939733     -0.00015957211633
  H   3.45429548175476     -3.38569396959971      0.00006029351682
  H   -4.63730295733018     -1.30002420320436     -0.00037422674911
  H   -4.66576322903177      1.18573932077389     -0.00044186180075
  H   1.19084298258995      4.66066922998832     -0.00029708165042
*

$new_job
!m062x def2-tzvp opt freq tightscf

%maxcore 5000
%pal
nprocs 8
end

%freq
Temp 298.15,10,20,50,100,6000,8000,10000
end

%base "eight_seven_eleven_twelven_three_four_two_nine_position"

* xyz 0 1
  C   2.50843642419213     -2.86068221519936     -0.00000105655209
  C   1.31470793174683     -3.49016086282622     -0.00003780009918
  C   0.07484643428983     -2.87553733997172     -0.00011328585679
  C   -1.22251675531768     -3.41377958864850     -0.00015570095963
  C   -2.28193183208725     -2.80929842032286     -0.00022480197965
  C   -2.49690098980913     -1.41877918439564     -0.00027720392745
  C   -3.71840843531934     -0.73020445018118     -0.00034964714554
  C   -3.73396132290873      0.63720518022058     -0.00038683582655
  C   -2.52866640066130      1.35403916545733     -0.00035256757556
  C   -2.34235156402205      2.74861524407207     -0.00038265822738
  C   -1.29335335307068      3.37108605947461     -0.00035693741920
  C   0.01936526259587      2.86474104226201     -0.00028961843742
  C   1.22531103061391      3.58008136741210     -0.00026189538116
  C   2.41810867483044      2.91249165395019     -0.00019223863311
  C   2.43810689604807      1.51054685335438     -0.00014700581607
  C   3.55237676893993      0.65367450300572     -0.00007125583569
  C   3.57689434074978     -0.56579699593045     -0.00002516739772
  C   2.48523401315947     -1.45123288062101     -0.00004715345911
  C   1.24949313417433     -0.71315722331657     -0.00012291430012
  C   1.22940507104591      0.73338420059951     -0.00017777887104
  C   -0.00994904241732      1.42883318162470     -0.00024904700469
  C   -1.25391980139938      0.69290158555765     -0.00027966297810
  C   -1.23804276160049     -0.72744798559025     -0.00023947335639
  C   0.02275793205632     -1.43331681939733     -0.00015957211633
  H   3.45429548175476     -3.38569396959971      0.00006029351682
  H   -4.63730295733018     -1.30002420320436     -0.00037422674911
  H   -4.66576322903177      1.18573932077389     -0.00044186180075
  H   3.35705293664934      3.44856730296144     -0.00016902254522
*

$new_job
!m062x def2-tzvp opt freq tightscf

%maxcore 5000
%pal
nprocs 8
end

%freq
Temp 298.15,10,20,50,100,6000,8000,10000
end

%base "eight_seven_eleven_twelven_three_four_two_six_position"

* xyz 0 1
  C   2.50843642419213     -2.86068221519936     -0.00000105655209
  C   1.31470793174683     -3.49016086282622     -0.00003780009918
  C   0.07484643428983     -2.87553733997172     -0.00011328585679
  C   -1.22251675531768     -3.41377958864850     -0.00015570095963
  C   -2.28193183208725     -2.80929842032286     -0.00022480197965
  C   -2.49690098980913     -1.41877918439564     -0.00027720392745
  C   -3.71840843531934     -0.73020445018118     -0.00034964714554
  C   -3.73396132290873      0.63720518022058     -0.00038683582655
  C   -2.52866640066130      1.35403916545733     -0.00035256757556
  C   -2.34235156402205      2.74861524407207     -0.00038265822738
  C   -1.29335335307068      3.37108605947461     -0.00035693741920
  C   0.01936526259587      2.86474104226201     -0.00028961843742
  C   1.22531103061391      3.58008136741210     -0.00026189538116
  C   2.41810867483044      2.91249165395019     -0.00019223863311
  C   2.43810689604807      1.51054685335438     -0.00014700581607
  C   3.55237676893993      0.65367450300572     -0.00007125583569
  C   3.57689434074978     -0.56579699593045     -0.00002516739772
  C   2.48523401315947     -1.45123288062101     -0.00004715345911
  C   1.24949313417433     -0.71315722331657     -0.00012291430012
  C   1.22940507104591      0.73338420059951     -0.00017777887104
  C   -0.00994904241732      1.42883318162470     -0.00024904700469
  C   -1.25391980139938      0.69290158555765     -0.00027966297810
  C   -1.23804276160049     -0.72744798559025     -0.00023947335639
  C   0.02275793205632     -1.43331681939733     -0.00015957211633
  H   3.45429548175476     -3.38569396959971      0.00006029351682
  H   -4.63730295733018     -1.30002420320436     -0.00037422674911
  H   1.19084298258995      4.66066922998832     -0.00029708165042
  H   3.35705293664934      3.44856730296144     -0.00016902254522
*

$new_job
!m062x def2-tzvp opt freq tightscf

%maxcore 5000
%pal
nprocs 8
end

%freq
Temp 298.15,10,20,50,100,6000,8000,10000
end

%base "eight_seven_eleven_twelven_three_four_two_five_position"

* xyz 0 1
  C   2.50843642419213     -2.86068221519936     -0.00000105655209
  C   1.31470793174683     -3.49016086282622     -0.00003780009918
  C   0.07484643428983     -2.87553733997172     -0.00011328585679
  C   -1.22251675531768     -3.41377958864850     -0.00015570095963
  C   -2.28193183208725     -2.80929842032286     -0.00022480197965
  C   -2.49690098980913     -1.41877918439564     -0.00027720392745
  C   -3.71840843531934     -0.73020445018118     -0.00034964714554
  C   -3.73396132290873      0.63720518022058     -0.00038683582655
  C   -2.52866640066130      1.35403916545733     -0.00035256757556
  C   -2.34235156402205      2.74861524407207     -0.00038265822738
  C   -1.29335335307068      3.37108605947461     -0.00035693741920
  C   0.01936526259587      2.86474104226201     -0.00028961843742
  C   1.22531103061391      3.58008136741210     -0.00026189538116
  C   2.41810867483044      2.91249165395019     -0.00019223863311
  C   2.43810689604807      1.51054685335438     -0.00014700581607
  C   3.55237676893993      0.65367450300572     -0.00007125583569
  C   3.57689434074978     -0.56579699593045     -0.00002516739772
  C   2.48523401315947     -1.45123288062101     -0.00004715345911
  C   1.24949313417433     -0.71315722331657     -0.00012291430012
  C   1.22940507104591      0.73338420059951     -0.00017777887104
  C   -0.00994904241732      1.42883318162470     -0.00024904700469
  C   -1.25391980139938      0.69290158555765     -0.00027966297810
  C   -1.23804276160049     -0.72744798559025     -0.00023947335639
  C   0.02275793205632     -1.43331681939733     -0.00015957211633
  H   3.45429548175476     -3.38569396959971      0.00006029351682
  H   -4.66576322903177      1.18573932077389     -0.00044186180075
  H   1.19084298258995      4.66066922998832     -0.00029708165042
  H   3.35705293664934      3.44856730296144     -0.00016902254522
*

$new_job
!m062x def2-tzvp opt freq tightscf

%maxcore 5000
%pal
nprocs 8
end

%freq
Temp 298.15,10,20,50,100,6000,8000,10000
end

%base "eight_seven_eleven_twelven_three_four_two_one_position"

* xyz 0 1
  C   2.50843642419213     -2.86068221519936     -0.00000105655209
  C   1.31470793174683     -3.49016086282622     -0.00003780009918
  C   0.07484643428983     -2.87553733997172     -0.00011328585679
  C   -1.22251675531768     -3.41377958864850     -0.00015570095963
  C   -2.28193183208725     -2.80929842032286     -0.00022480197965
  C   -2.49690098980913     -1.41877918439564     -0.00027720392745
  C   -3.71840843531934     -0.73020445018118     -0.00034964714554
  C   -3.73396132290873      0.63720518022058     -0.00038683582655
  C   -2.52866640066130      1.35403916545733     -0.00035256757556
  C   -2.34235156402205      2.74861524407207     -0.00038265822738
  C   -1.29335335307068      3.37108605947461     -0.00035693741920
  C   0.01936526259587      2.86474104226201     -0.00028961843742
  C   1.22531103061391      3.58008136741210     -0.00026189538116
  C   2.41810867483044      2.91249165395019     -0.00019223863311
  C   2.43810689604807      1.51054685335438     -0.00014700581607
  C   3.55237676893993      0.65367450300572     -0.00007125583569
  C   3.57689434074978     -0.56579699593045     -0.00002516739772
  C   2.48523401315947     -1.45123288062101     -0.00004715345911
  C   1.24949313417433     -0.71315722331657     -0.00012291430012
  C   1.22940507104591      0.73338420059951     -0.00017777887104
  C   -0.00994904241732      1.42883318162470     -0.00024904700469
  C   -1.25391980139938      0.69290158555765     -0.00027966297810
  C   -1.23804276160049     -0.72744798559025     -0.00023947335639
  C   0.02275793205632     -1.43331681939733     -0.00015957211633
  H   -4.63730295733018     -1.30002420320436     -0.00037422674911
  H   -4.66576322903177      1.18573932077389     -0.00044186180075
  H   1.19084298258995      4.66066922998832     -0.00029708165042
  H   3.35705293664934      3.44856730296144     -0.00016902254522
*