!b3lyp 6-311g** d4 pal4 opt freq tightscf




* xyz 0 1
  C   2.45814372841442     -2.79762432152276     -0.00000935721672
  C   1.28165018622583     -3.49669397992260     -0.00004049267120
  C   0.03017414605882     -2.82714149744190     -0.00011725249806
  C   -1.20273144639335     -3.53456352749896     -0.00015100845725
  C   -2.39665659376726     -2.87062715688405     -0.00022452639696
  C   -2.45065899847611     -1.44934467917827     -0.00027014660337
  C   -3.68551110480012     -0.75377167730970     -0.00034622466913
  C   -3.73325549081493      0.61639404095496     -0.00038921221751
  C   -2.54008810516095      1.36783854991550     -0.00035838623256
  C   -2.35700598835419      2.76186463601592     -0.00039242925878
  C   -1.29898566663472      3.39044148429585     -0.00036424354529
  C   0.01285162348956      2.88477145248367     -0.00029057161392
  C   1.24333710587108      3.57347913638436     -0.00025777864094
  C   2.42393196182503      2.87645730502049     -0.00018480355988
  C   2.44443589018069      1.45936607197506     -0.00014130938598
  C   3.66686782017425      0.73229006448145     -0.00006535708886
  C   3.67916229317430     -0.63373272158623     -0.00002327412121
  C   2.46838135174265     -1.37836527496951     -0.00005337391096
  C   1.23270737339771     -0.68306190907567     -0.00013045198616
  C   1.21729323638278      0.74242395579856     -0.00017161728796
  C   -0.02145939069642      1.44377354856862     -0.00025024117537
  C   -1.25797197801671      0.70904683508363     -0.00028058686329
  C   -1.23428793656536     -0.71428267284432     -0.00023902186922
  C   0.01033306611500     -1.40943065654563     -0.00016036632085
  H   3.40688295147393     -3.32367661827808      0.00005001285726
  H   1.29004685144018     -4.58147322693060     -0.00000608347828
  H   -1.17866080904164     -4.61905737503119     -0.00011665379895
  H   -3.33031471786782     -3.42286952531542     -0.00024960397183
  H   -4.60465101107322     -1.32966851088993     -0.00037039170930
  H   -4.68078759715506      1.14070930111139     -0.00044817588434
  H   1.23586896821948      4.65637764844833     -0.00029079466514
  H   3.36918037509646      3.40846526495057     -0.00015974848227
  H   4.59835470973784      1.28815351006007     -0.00004147702617
  H   4.62030049056291     -1.17312384933370      0.00003542127604
*