!b3lyp 6-311g** d4 opt freq

%maxcore 5000
%pal
nprocs 8
end

* xyz 0 1
  C   2.73397066458476     -3.23002072900635      0.00419535935050
  C   1.52719938605030     -3.94450777006009      0.00346814034053
  C   0.44216622057901     -3.05518326223519      0.00437023329634
  C   -0.92264481366531     -3.44333689243463      0.00396415832690
  C   -2.07821596699608     -2.70154987056830      0.00470269612418
  C   -2.20924330001813     -1.28041537638377      0.00615571363265
  C   -3.51545624852880     -0.66461414236052      0.00679625269576
  C   -3.73594530272173      0.69603437624525      0.00819053176689
  C   -2.63417999540985      1.60732752017019      0.00910831576858
  C   -2.60081613263787      3.03713682394464      0.01056356649073
  C   -1.40611873640063      3.74505664477590      0.01126367007369
  C   -0.13599422462542      3.08744661190348      0.01058707375108
  C   1.19266942373305      3.61599667393588      0.01112623950656
  C   2.28004333727245      2.76915549801772      0.01027775917526
  C   2.19293817403268      1.32750260999866      0.00881595461260
  C   3.37622416397696      0.52966502521533      0.00803590796820
  C   3.47170817294056     -0.84031336455427      0.00665036243326
  C   2.47584669172128     -1.85092698496541      0.00560229890761
  C   0.32586878020032     -0.54024131799069      0.00690799440464
  C   -1.39234998088655      0.98391385213651      0.00846100738760
  C   -1.12996501874367     -0.39122961377325      0.00705814456904
  C   1.02031569078315     -1.71233982058721      0.00573596161210
  H   3.72271655728679     -3.66962432316849      0.00374813549377
  H   1.43708143236114     -5.02284493577448      0.00236765740123
  H   -1.06568433358975     -4.52168119962283      0.00286233612832
  H   -3.00931087154560     -3.26013878235511      0.00412284190836
  H   -4.37361855758523     -1.32873817204912      0.00612777232554
  H   -4.75481564053137      1.06939431720193      0.00858281182979
  H   -3.53529394057673      3.58861820476171      0.01114192659129
  H   -1.44097618236760      4.82957066191563      0.01236876092051
  H   1.35471760526401      4.68895757081281      0.01221414251987
  H   3.27459323704251      3.20319387658370      0.01072870241835
  H   4.31372023888525      1.07742833989744      0.00860890322430
  H   4.48638009237806     -1.23243164374741      0.00627074270867
  C   0.89450075566337      0.80818798359372      0.00827327378064
  C   -0.18562137792533      1.69887161052663      0.00917465055468
*