!M062X def2-tzvp PAL4 TIGHTOPT FREQ defgrid3 verytightscf

%freq
Temp 298.15,10,20,50,100,6000,8000,10000
end

%geom
maxiter 6000
end



* xyz 0 1
  C   2.45024767781397     -2.79088845422407     -0.00000938991726
  C   1.27956267261532     -3.48658808767447     -0.00004199041518
  C   0.03020310625919     -2.81550732119018     -0.00011789062906
  C   -1.20108929293839     -3.52527633478020     -0.00015283044576
  C   -2.38858597622182     -2.86504893637874     -0.00022498731516
  C   -2.44108197261203     -1.44399840937901     -0.00026977722794
  C   -3.67664815488274     -0.75323846120680     -0.00034508171349
  C   -3.72619103513175      0.61011442158688     -0.00038695503160
  C   -2.53310385205262      1.35934451234726     -0.00035606001250
  C   -2.34752598708266      2.75390994650057     -0.00038920673762
  C   -1.29670621365080      3.37860291890169     -0.00036230773715
  C   0.01683951893005      2.87466311961114     -0.00029133231447
  C   1.24551381641079      3.56424109354326     -0.00025979444256
  C   2.41912619307901      2.86884590764749     -0.00018732290336
  C   2.43516507628830      1.45349356601676     -0.00014257265195
  C   3.65823793814160      0.72790757912234     -0.00006413468989
  C   3.67028527219667     -0.63084086543001     -0.00002138690896
  C   2.45820052906728     -1.37288152517845     -0.00005316837364
  C   1.23136984515361     -0.68204197678717     -0.00012966191552
  C   1.21554524887866      0.74294181053525     -0.00017432075702
  C   -0.02154995620554      1.44515622172209     -0.00024986159180
  C   -1.25909884296142      0.70968573654380     -0.00028126057904
  C   -1.23394295940125     -0.71246465284663     -0.00023766649264
  C   0.01011894540401     -1.40778721810258     -0.00016257370372
  H   3.39881580580318     -3.31417954221239      0.00004974485595
  H   1.28573635923110     -4.56988777799178     -0.00000784587274
  H   -1.17447994529076     -4.60821534800633     -0.00011914167385
  H   -3.32210856630241     -3.41462105732816     -0.00025074935228
  H   -4.59259219317491     -1.33148181218652     -0.00036964131605
  H   -4.67219547496003      1.13375240591159     -0.00044538469848
  H   1.23804129197342      4.64547385631899     -0.00029312160517
  H   3.36486881829754      3.39701007763111     -0.00016209932451
  H   4.58719661221870      1.28514520034098     -0.00003968006642
  H   4.60870298987178     -1.17199696838782      0.00003992508645
  *