!b3lyp 6-311+g** d4

%maxcore 5000
%pal
nprocs 8
end

%tddft
  nroots 1000
  end
  
* xyz 0 1
  C   2.72922398785092     -3.22717713924447      0.00420546946384
  C   1.53210761563431     -3.94899538833643      0.00346722574993
  C   0.43898813540805     -3.06545854993308      0.00435658727036
  C   -0.91420638238416     -3.47357975340582      0.00392314116028
  C   -2.08417794066505     -2.74792574710615      0.00463210074083
  C   -2.21589519247820     -1.33864847605241      0.00606823517449
  C   -3.42721203243697     -0.58489909137974      0.00682693530613
  C   -3.63269154293823      0.63256704043859      0.00808189313615
  C   -2.64963504567259      1.66337504713965      0.00914755895192
  C   -2.60902054976720      3.08113772522007      0.01059910703984
  C   -1.39750418959825      3.76754641069003      0.01128834149242
  C   -0.14169042702587      3.09312227699900      0.01059754915000
  C   1.18986175680845      3.61715126130430      0.01113371642785
  C   2.27236431726196      2.76760061162233      0.01028078242121
  C   2.17925408293259      1.32531307224632      0.00881779195898
  C   3.36273210892976      0.53033162865908      0.00803779959690
  C   3.45747913777517     -0.83907146516157      0.00665290062583
  C   2.46030138205757     -1.84707582241694      0.00560904177456
  C   0.30692826681385     -0.54207006945352      0.00690771354484
  C   -1.40822697751519      0.99327893784120      0.00846358545535
  C   -1.14991578657254     -0.39475297024606      0.00704481933758
  C   1.00653862888310     -1.71429406306906      0.00573519067327
  H   3.72240372880084     -3.65644717963206      0.00377310493039
  H   1.44695515311278     -5.02752669524466      0.00236714694579
  H   -1.04206600850987     -4.55351841463449      0.00282383072397
  H   -3.01185384471389     -3.30804831923796      0.00404488173914
  H   -3.53627683570670      3.64154266474936      0.01118264966946
  H   -1.41512387030060      4.85229504187488      0.01239722813246
  H   1.35375681848194      4.68967957230395      0.01222068283606
  H   3.26897425205786      3.19653401033664      0.01072518177087
  H   4.29968783147795      1.07875815282690      0.00860994871505
  H   4.47137229465145     -1.23278096368335      0.00627086723544
  C   0.88032034631760      0.80771433216342      0.00827609566335
  C   -0.19832321897084      1.70162232182202      0.00918089518544
*