!b3lyp 6-311g** d4 opt freq

%maxcore 5000
%pal
nprocs 7
end


* xyz 0 1
C          2.73133       -3.25792        0.00420
C          1.63578       -3.97125        0.00347
C          0.50561       -3.16011        0.00426
C         -0.87198       -3.26721        0.00413
C         -1.92560       -2.62810        0.00476
C         -2.31134       -1.28995        0.00614
C         -3.51625       -0.56339        0.00687
C         -3.71232        0.66420        0.00812
C         -2.73042        1.67217        0.00914
C         -2.52574        3.05727        0.01053
C         -1.43981        3.67382        0.01116
C         -0.13772        3.15889        0.01065
C          1.22559        3.51911        0.01102
C          2.15640        2.69898        0.01019
C          2.22276        1.28670        0.00876
C          3.41787        0.52045        0.00800
C          3.40052       -0.83114        0.00664
C          2.49999       -1.87356        0.00558
C          0.27990       -0.56528        0.00691
C         -1.44439        1.01885        0.00849
C         -1.20160       -0.37187        0.00709
C          1.00961       -1.75120        0.00571
C          0.87103        0.79742        0.00827
C         -0.21166        1.71947        0.00920
*