!B3LYP 6-311G* VERYTIGHTOPT FREQ D3  tightscf

%maxcore 5000
%pal
nprocs 7
end

* xyz 0 1
C         -2.82540        0.97170        0.00070
C         -3.34550       -0.29790        0.00060
C         -2.57290       -1.46190       -0.00000
C         -1.21500       -1.36940       -0.00030
C         -0.71520       -0.08180       -0.00020
C          0.71520       -0.08180       -0.00030
C          1.21500       -1.36940       -0.00010
C          2.57290       -1.46190        0.00030
C          3.34550       -0.29790        0.00050
C          2.82540        0.97170        0.00050
C          1.43330        1.11620       -0.00050
C          0.68270        2.31290       -0.00050
C         -0.68270        2.31290       -0.00020
C         -1.43330        1.11620       -0.00000
C          0.00000       -2.27250       -0.00060
H         -3.47270        1.83620       -0.00300
H         -4.42020       -0.40420        0.00140
H         -3.05090       -2.43040       -0.00000
H          3.05090       -2.43040        0.00090
H          4.42020       -0.40420        0.00100
H          3.47270        1.83620        0.00090
H          1.20560        3.25790       -0.00030
H         -1.20560        3.25790        0.00070
H         -0.00000       -2.89790        0.89220
H          0.00000       -2.89720       -0.89380
*