!b3lyp 6-311+g** d4 moread UKS

%scf
  stabperform true
  stabdtol 0.00001
  stabrtol 0.00001
  end
  
%maxcore 5000
%pal
nprocs 8
end

%tddft
  nroots 1000
  end
  
%moinp "57rings_19-22_loss_six_product_spectra_orca6.0.gbw"

* xyz  0  1
  C   2.65275128826153     -3.24955068983803      0.00418934134358
  C   1.57844270590085     -3.88534056637248      0.00354696706783
  C   0.41737335801058     -3.07054036145796      0.00436462920641
  C   -0.92447754217501     -3.47781932767187      0.00394692809896
  C   -2.09149131133919     -2.73807175308125      0.00467104592535
  C   -2.21134318352183     -1.33360720930751      0.00609205792533
  C   -3.42486054893010     -0.58041961380450      0.00684199795270
  C   -3.63098631887311      0.63507500922426      0.00808511479930
  C   -2.65202655357254      1.67152404052433      0.00915088849991
  C   -2.63301406470047      3.08246606750079      0.01057920444461
  C   -1.42937957047094      3.79483591251306      0.01128813420040
  C   -0.18326398229195      3.13273762242878      0.01062042132775
  C   1.19633995555592      3.49299887139081      0.01098551327538
  C   2.16218604529862      2.72683906321597      0.01021345818978
  C   2.23913667397300      1.30096701170459      0.00877827509022
  C   3.41249008236421      0.52005936106537      0.00800696720759
  C   3.49962786445729     -0.85906382283723      0.00662040552058
  C   2.49741329088246     -1.83970552363432      0.00561562789710
  C   0.31505991763727     -0.52489452365824      0.00691590892736
  C   -1.40449655338480      1.00292493526044      0.00847397601264
  C   -1.14483292315536     -0.38463846184542      0.00706256162884
  C   1.01104245784290     -1.70118681060915      0.00573881886094
  H   -1.05270695010507     -4.55561780920364      0.00286107947275
  H   -3.02212330062401     -3.29239030681766      0.00409717820621
  H   -3.56808201617713      3.62917927613023      0.01114047552174
  H   -1.45884549390032      4.87761439737867      0.01238095638127
  H   4.34647864171629      1.06873634505758      0.00856581940498
  H   4.50646250920553     -1.26452489021571      0.00622046854151
  C   0.89407144042790      0.82218472334227      0.00828528683209
  C   -0.19734591831255      1.71745903361782      0.00919049223691
  *
