! b3lyp 6-311+g** d4 

%maxcore 5000
%pal
nprocs 7
end

%tddft
  nroots 1000
  end
  
* xyz 0 1
  C   2.73410372137963     -3.23018255987493      0.00419616177509
  C   1.52725072905496     -3.94473050757940      0.00346882820659
  C   0.44219008202700     -3.05528656366903      0.00437011116666
  C   -0.92261980803548     -3.44336940901410      0.00396349111599
  C   -2.07818340432981     -2.70151399109656      0.00470200851665
  C   -2.20929052781301     -1.28038676087921      0.00615499592417
  C   -3.51550099485617     -0.66459432681038      0.00679577903241
  C   -3.73602024157363      0.69601770425336      0.00819040814841
  C   -2.63426543077348      1.60731163650560      0.00910852840959
  C   -2.60078453308585      3.03714458149786      0.01056444701729
  C   -1.40610009864572      3.74500002720139      0.01126433582547
  C   -0.13591676726732      3.08751930669542      0.01058740345448
  C   1.19268612757949      3.61612136967877      0.01112625389173
  C   2.28009913555574      2.76923325942513      0.01027722043913
  C   2.19292741053189      1.32762683664310      0.00881579400902
  C   3.37614397237973      0.52966148650023      0.00803522409344
  C   3.47168050451492     -0.84033147499282      0.00664974610762
  C   2.47588440839367     -1.85101187768987      0.00560224734179
  C   0.32590966091943     -0.54028389890688      0.00690863901024
  C   -1.39238001302065      0.98397127618347      0.00846133878299
  C   -1.12997464062303     -0.39122806609289      0.00705794052931
  C   1.02032923552624     -1.71241877494839      0.00573656149632
  H   3.72298460464634     -3.66946779522506      0.00374964634656
  H   1.43680835592605     -5.02303348273594      0.00236863924038
  H   -1.06569188401657     -4.52171226453978      0.00286189550504
  H   -3.00928030088838     -3.26011265306035      0.00412204352540
  H   -4.37365352941185     -1.32874135890470      0.00612689005542
  H   -4.75487290198003      1.06942714582969      0.00858270579149
  H   -3.53521138208037      3.58872704488789      0.01114287484542
  H   -1.44106119395834      4.82952641718806      0.01236953876004
  H   1.35458572554270      4.68910171334580      0.01221426607619
  H   3.27467362964550      3.20321337383766      0.01072768272079
  H   4.31367968755968      1.07737509859570      0.00860789115987
  H   4.48637580652361     -1.23239371009040      0.00627018218861
  C   0.89451567637412      0.80820486500872      0.00827330091894
  C   -0.18561082172101      1.69893633283286      0.00917497857150
*