!b3lyp 6-311+g** d4

%maxcore 5000
%pal
nprocs 8
end

%tddft
  nroots 1000
  end
  
* xyz 0 1  
  C   2.38176577478174     -2.80604465461656     -0.00001343939367
  C   1.32578443596252     -3.44045494695259     -0.00004080802389
  C   0.03409560722768     -2.93814352559578     -0.00011167045750
  C   -1.24451111338805     -3.47728892405310     -0.00015327822909
  C   -2.31850588614105     -2.87667941311949     -0.00021797345824
  C   -2.52373103817797     -1.50385247861538     -0.00027045265000
  C   -3.62603423024341     -0.66377274905051     -0.00034314972686
  C   -3.63564495832900      0.56802232480521     -0.00038133316261
  C   -2.54884998050652      1.42813823006206     -0.00035826757006
  C   -2.36262152063186      2.80796656837341     -0.00039320891087
  C   -1.27939757174994      3.38928529613664     -0.00036254008165
  C   0.01781394036379      2.87142753238684     -0.00029086748466
  C   1.22857899604254      3.58807962257957     -0.00025892876174
  C   2.42159228519388      2.91915379389964     -0.00018802778808
  C   2.44144607677826      1.51239666271349     -0.00014397081843
  C   3.55930386153896      0.67529817483180     -0.00007118884636
  C   3.62963219266427     -0.55203090829492     -0.00002969665187
  C   2.54894583580589     -1.43006620787101     -0.00005066085921
  C   1.25140198121826     -0.72015586582872     -0.00012494412784
  C   1.22392405651188      0.72216065691158     -0.00017700685684
  C   -0.02133310699844      1.42060495979096     -0.00024524930685
  C   -1.26617154458923      0.69161335582824     -0.00028404966724
  C   -1.24784520734046     -0.74897998858116     -0.00023321451590
  C   0.01272779528317     -1.45582862845954     -0.00016314148399
  H   1.19185707821147      4.66982621784994     -0.00029356663862
  H   3.36365155895983      3.45210651386760     -0.00016221476972
*