!B3LYP 6-311G* VERYTIGHTOPT FREQ D3  tightscf

%maxcore 5000
%pal
nprocs 7
end

* xyz 0 1
C          0.77220       -2.35410       -0.00070
C         -0.77220       -2.35410        0.00040
C         -1.17060       -0.89840        0.00040
C         -2.35750       -0.23150        0.00050
C         -2.38230        1.16500       -0.00010
C         -1.24200        1.91540       -0.00080
C         -0.00000        1.25960       -0.00020
C          1.24200        1.91540        0.00050
C          2.38230        1.16500        0.00060
C          2.35750       -0.23150       -0.00030
C          1.17060       -0.89840       -0.00020
C         -0.00000       -0.14680        0.00000
H          1.15060       -2.84960        0.89340
H          1.14930       -2.84870       -0.89580
H         -1.15060       -2.84940       -0.89380
H         -1.14930       -2.84900        0.89540
H         -3.28470       -0.78520        0.00080
H         -3.33750        1.66900       -0.00040
H         -1.29400        2.99410       -0.00210
H          1.29400        2.99410        0.00060
H          3.33750        1.66900        0.00110
H          3.28470       -0.78520       -0.00080
*