!M062X DEF2-TZVP OPT FREQ

%maxcore 3000
%pal
nprocs 5
end

%freq
Temp 298.15,10,20,50,100,6000,8000,10000
end


* xyz 0 2
  C   2.45025911436908     -2.79090177790463     -0.00000982964919
  C   1.27956958510907     -3.48660258649203     -0.00004173389427
  C   0.03020658595300     -2.81550364249800     -0.00011862088441
  C   -1.20107819729747     -3.52526706874898     -0.00015240048714
  C   -2.38858789470557     -2.86502728739536     -0.00022482001470
  C   -2.44105509445554     -1.44398386157020     -0.00026954248287
  C   -3.67663052786843     -0.75322560258363     -0.00034505741295
  C   -3.72620674307354      0.61012331224561     -0.00038725318909
  C   -2.53312282987023      1.35934632798929     -0.00035605272073
  C   -2.34753337498203      2.75391254959518     -0.00038934949593
  C   -1.29670155377861      3.37861761727772     -0.00036267557578
  C   0.01685582404701      2.87468391601134     -0.00029170556996
  C   1.24552120765708      3.56426857632077     -0.00025954932536
  C   2.41910897755889      2.86883891663109     -0.00018686269248
  C   2.43513201634147      1.45348005475609     -0.00014272162428
  C   3.65821453508405      0.72792377916697     -0.00006423037791
  C   3.67026889114169     -0.63084151991298     -0.00002152358643
  C   2.45819623267264     -1.37288294365309     -0.00005292192897
  C   1.23136494255913     -0.68205099072942     -0.00012978920390
  C   1.21552338299244      0.74291881045426     -0.00017515439035
  C   -0.02157562885261      1.44516062565708     -0.00024971485033
  C   -1.25909575897147      0.70970393432854     -0.00028207962759
  C   -1.23391475435778     -0.71245727770562     -0.00023706797792
  C   0.01012694395947     -1.40778803226763     -0.00016249723364
  H   3.39883583341171     -3.31417365841427      0.00004947598548
  H   1.28571717640132     -4.56990075715492     -0.00000797167050
  H   -1.17451584360617     -4.60820675048880     -0.00011872516592
  H   -3.32207671532680     -3.41465497856564     -0.00025023814909
  H   -4.59253679048289     -1.33153116975716     -0.00036952032608
  H   -4.67219071827069      1.13379875695350     -0.00044562775965
  H   1.23798091724791      4.64550021059141     -0.00029268019975
  H   3.36490179443101      3.39691648656407     -0.00016139178048
  H   4.58720556626417      1.28510572107642     -0.00003933255885
*