!b3lyp 6-311+g** d4 pal4 defgrid3
  
%scf
stabperform true
Diismaxeq 15
directresetfreq 1
end

%tddft
  nroots 1000
  end
  
 
  
* xyz 0 1
  C   2.45809532695984     -2.79759523490044     -0.00000937038140
  C   1.28164858038698     -3.49663707920152     -0.00004051499092
  C   0.03017496876468     -2.82710938524277     -0.00011719473118
  C   -1.20272644245053     -3.53450611399031     -0.00015100469294
  C   -2.39661264665652     -2.87060595512245     -0.00022444562563
  C   -2.45065954999137     -1.44934041120254     -0.00027002870879
  C   -3.68549632351608     -0.75376990610535     -0.00034628961804
  C   -3.73326477225531      0.61633393483192     -0.00038924311157
  C   -2.54014992157865      1.36783572256768     -0.00035853123718
  C   -2.35695540451351      2.76183530738250     -0.00039244783212
  C   -1.29898369947483      3.39034792016927     -0.00036419460061
  C   0.01288762161823      2.88482399679672     -0.00029058009959
  C   1.24339712150878      3.57345987243324     -0.00025773144816
  C   2.42392367141807      2.87644518943565     -0.00018488365315
  C   2.44443184549422      1.45936938662606     -0.00014133133660
  C   3.66682849463860      0.73226281554629     -0.00006533628044
  C   3.67910990664480     -0.63371065879578     -0.00002320913166
  C   2.46835349627082     -1.37835162634668     -0.00005333675600
  C   1.23271176795151     -0.68305244447820     -0.00013043348100
  C   1.21731240572707      0.74246907120465     -0.00017162125855
  C   -0.02146708895416      1.44383432509931     -0.00025036887797
  C   -1.25802564070030      0.70908347456298     -0.00028037154615
  C   -1.23433750486085     -0.71427638888425     -0.00023903313686
  C   0.01032314157249     -1.40942838429699     -0.00016038481848
  H   3.40677014577876     -3.32377182929685      0.00004989557786
  H   1.29018803611289     -4.58141935709865     -0.00000615993004
  H   -1.17882126164712     -4.61900801903972     -0.00011671905630
  H   -3.33017371186068     -3.42302017551220     -0.00024949241119
  H   -4.60469586153521     -1.32957919465616     -0.00037038699740
  H   -4.68087418010260      1.14052010398524     -0.00044827745229
  H   1.23608022850305      4.65636454602007     -0.00029070133766
  H   3.36912646703921      3.40854233789446     -0.00015978008712
  H   4.59842216216378      1.28795485689888     -0.00004147972372
  H   4.62033591630898     -1.17295707229416      0.00003546029845
*