!M062X def2-tzvp PAL4 TIGHTOPT FREQ

%freq
Temp 298.15,10,20,50,100,6000,8000,10000
end

%geom
maxiter 5000
end



* xyz 0 1
  C   2.45791983499341     -2.80268931379768     -0.00000793519644
  C   1.28608761308438     -3.49706883370209     -0.00003643606214
  C   0.03470547919465     -2.82650100714450     -0.00011895547508
  C   -1.19909611030651     -3.52926406052669     -0.00014738304165
  C   -2.38727532547159     -2.86387815648029     -0.00022974228995
  C   -2.43307513493588     -1.44447575303296     -0.00027036473986
  C   -3.65942351028343     -0.73056692575933     -0.00034869983218
  C   -3.68143184744779      0.63183680863156     -0.00038756598292
  C   -2.47654311552349      1.38171086633990     -0.00035715694906
  C   -2.47435650264592      2.81046534061019     -0.00039831731937
  C   -1.28561443050281      3.43802142880253     -0.00036151343355
  C   -0.02057223287027      2.83388218261706     -0.00029010794623
  C   1.21086686736911      3.53893902602452     -0.00025402239824
  C   2.39489324957599      2.86551829309080     -0.00018393811888
  C   2.43517090494280      1.44582754720977     -0.00014049013964
  C   3.65975900430544      0.72697243056351     -0.00006992784603
  C   3.67546036802878     -0.63516446298208     -0.00002698908555
  C   2.46811813995863     -1.38295180399054     -0.00005240219282
  C   1.24061543792698     -0.69496199420878     -0.00012711748511
  C   1.22474219035332      0.72698621586077     -0.00017741356338
  C   -0.01566516709535      1.42103164152461     -0.00024506128700
  C   -1.24356348643455      0.69923344199718     -0.00028346088976
  C   -1.22400277498297     -0.72338676000015     -0.00023734960533
  C   0.01693487392421     -1.41913103104816     -0.00016297130775
  H   3.40501735040542     -3.32906588787472      0.00005627444163
  H   1.29296308352502     -4.58060438188898      0.00000142672494
  H   -1.17896310310274     -4.61257131284734     -0.00011513591155
  H   -3.32129405982821     -3.41317602901623     -0.00025227227744
  H   -4.58586789409211     -1.29266910376159     -0.00037146429946
  H   -4.62408845924854      1.16575491725399     -0.00044556872067
  H   -3.41518424261775      3.34878172120577     -0.00045725814046
  H   1.18854626437870      4.62103847897618     -0.00028959104089
  H   4.58800492413600      1.28586263822177     -0.00004835142171
  H   4.61660270482137     -1.17213723898180      0.00002811587814
  *