!M062X def2-Tzvp freq PAL4

*xyz 0 2
H 0     0       0
*