!B3LYP 6-311G** VERYTIGHTOPT FREQ D3 PAL4 tightscf
%GEOM
  Maxiter 1500
  end
  
* xyz 0 1
C          2.46639       -2.78404       -0.00002
C          1.26559       -3.49747       -0.00002
C          0.03530       -2.82705       -0.00009
C         -1.17786       -3.52798       -0.00009
C         -2.39610       -2.84477       -0.00019
C         -2.43064       -1.44410       -0.00027
C         -3.64425       -0.74394       -0.00039
C         -3.66169        0.65270       -0.00045
C         -2.46595        1.38295       -0.00038
C         -2.46639        2.78404       -0.00041
C         -1.26559        3.49747       -0.00034
C         -0.03530        2.82705       -0.00026
C          1.17786        3.52798       -0.00020
C          2.39610        2.84477       -0.00015
C          2.43064        1.44410       -0.00015
C          3.64425        0.74394       -0.00011
C          3.66169       -0.65270       -0.00008
C          2.46595       -1.38295       -0.00008
C          1.23361       -0.69183       -0.00014
C          1.21595        0.72242       -0.00018
C         -0.01766        1.41425       -0.00024
C         -1.23361        0.69183       -0.00029
C         -1.21595       -0.72242       -0.00024
C          0.01766       -1.41425       -0.00015
H          3.40434       -3.33493        0.00002
H          1.30086       -4.58466        0.00004
H         -1.18597       -4.61571       -0.00003
H         -3.32000       -3.41891       -0.00020
H         -4.59031       -1.28078       -0.00043
H         -4.62086        1.16575       -0.00054
H         -3.40434        3.33493       -0.00048
H         -1.30086        4.58466       -0.00036
H          1.18597        4.61571       -0.00020
H          3.32000        3.41891       -0.00012
H          4.59031        1.28078       -0.00010
H          4.62086       -1.16575       -0.00005
*